p edge 30 81
v 1 2
v 2 1
v 3 3
v 4 3
v 5 3
v 6 1
v 7 2
v 8 3
v 9 3
v 10 3
v 11 2
v 12 2
v 13 3
v 14 2
v 15 1
v 16 3
v 17 2
v 18 3
v 19 3
v 20 1
v 21 2
v 22 1
v 23 3
v 24 3
v 25 2
v 26 3
v 27 1
v 28 2
v 29 3
v 30 3
e 1 10
e 1 12
e 1 13
e 1 15
e 1 25
e 1 28
e 2 11
e 2 12
e 2 16
e 2 17
e 2 18
e 2 20
e 2 21
e 2 22
e 2 25
e 2 26
e 3 6
e 3 14
e 3 17
e 3 18
e 3 26
e 3 29
e 4 14
e 4 24
e 4 27
e 4 29
e 4 30
e 5 16
e 5 19
e 6 8
e 6 9
e 6 18
e 7 14
e 7 29
e 8 9
e 8 11
e 8 18
e 8 20
e 10 25
e 10 28
e 11 20
e 11 21
e 11 22
e 12 16
e 12 17
e 12 22
e 12 25
e 12 26
e 13 15
e 13 23
e 13 24
e 13 27
e 13 28
e 13 30
e 14 17
e 14 26
e 14 27
e 14 29
e 14 30
e 15 23
e 15 24
e 15 28
e 16 19
e 16 21
e 16 22
e 16 25
e 17 18
e 17 26
e 18 26
e 19 21
e 19 22
e 19 25
e 20 21
e 20 22
e 21 22
e 22 25
e 23 28
e 24 27
e 24 30
e 27 29
e 27 30
